(declare-const a Real)
(declare-const b Real)
(declare-const c Real)
(assert (= (+ a b c) 1))
(assert (> a 0))
(assert (> b 0))
(assert (> c 0))
(assert (not (<= (+ (pow (+ 2 (* 2 (pow (+ (* (pow a (/ 1 2)) (pow c (/ 1 2))) (* (pow b (/ 1 2)) (pow c (/ 1 2))) (* (/ 1 32) (+ 1 b) (+ 5 (* 8 a) (* 16 (pow a 2))))) 2))) (/ 1 2)) (* -1 (pow (+ a (* b c)) (/ 1 2))) (* -1 (pow (+ b (* a c)) (/ 1 2))) (* -1 (pow (+ c (* a b)) (/ 1 2)))) 0)))
(check-sat)
(get-model)
(exit)